db/data/15167158643202220171302821104946729947.z3.out
-------------------
2500.153781611
